c
c Generated WCNF file
c
p wcnf 326 1551 56170
56170 26 0
56170 -27 1 0
56170 -27 2 0
56170 27 -1 -2 0
56170 -28 1 0
56170 -28 3 0
56170 28 -1 -3 0
56170 -29 1 0
56170 -29 4 0
56170 29 -1 -4 0
56170 -30 1 0
56170 -30 5 0
56170 30 -1 -5 0
56170 -31 1 0
56170 -31 6 0
56170 31 -1 -6 0
56170 -32 1 0
56170 -32 7 0
56170 32 -1 -7 0
56170 -33 1 0
56170 -33 8 0
56170 33 -1 -8 0
56170 -34 1 0
56170 -34 9 0
56170 34 -1 -9 0
56170 -35 1 0
56170 -35 10 0
56170 35 -1 -10 0
56170 -36 1 0
56170 -36 11 0
56170 36 -1 -11 0
56170 -37 1 0
56170 -37 12 0
56170 37 -1 -12 0
56170 -38 1 0
56170 -38 13 0
56170 38 -1 -13 0
56170 -39 1 0
56170 -39 14 0
56170 39 -1 -14 0
56170 -40 1 0
56170 -40 15 0
56170 40 -1 -15 0
56170 -41 1 0
56170 -41 16 0
56170 41 -1 -16 0
56170 -42 1 0
56170 -42 17 0
56170 42 -1 -17 0
56170 -43 1 0
56170 -43 18 0
56170 43 -1 -18 0
56170 -44 1 0
56170 -44 19 0
56170 44 -1 -19 0
56170 -45 1 0
56170 -45 20 0
56170 45 -1 -20 0
56170 -46 1 0
56170 -46 21 0
56170 46 -1 -21 0
56170 -47 1 0
56170 -47 22 0
56170 47 -1 -22 0
56170 -48 1 0
56170 -48 23 0
56170 48 -1 -23 0
56170 -49 1 0
56170 -49 24 0
56170 49 -1 -24 0
56170 -50 1 0
56170 -50 25 0
56170 50 -1 -25 0
56170 -51 2 0
56170 -51 3 0
56170 51 -2 -3 0
56170 -52 2 0
56170 -52 4 0
56170 52 -2 -4 0
56170 -53 2 0
56170 -53 5 0
56170 53 -2 -5 0
56170 -54 2 0
56170 -54 6 0
56170 54 -2 -6 0
56170 -55 2 0
56170 -55 7 0
56170 55 -2 -7 0
56170 -56 2 0
56170 -56 8 0
56170 56 -2 -8 0
56170 -57 2 0
56170 -57 9 0
56170 57 -2 -9 0
56170 -58 2 0
56170 -58 10 0
56170 58 -2 -10 0
56170 -59 2 0
56170 -59 11 0
56170 59 -2 -11 0
56170 -60 2 0
56170 -60 12 0
56170 60 -2 -12 0
56170 -61 2 0
56170 -61 13 0
56170 61 -2 -13 0
56170 -62 2 0
56170 -62 14 0
56170 62 -2 -14 0
56170 -63 2 0
56170 -63 15 0
56170 63 -2 -15 0
56170 -64 2 0
56170 -64 16 0
56170 64 -2 -16 0
56170 -65 2 0
56170 -65 17 0
56170 65 -2 -17 0
56170 -66 2 0
56170 -66 18 0
56170 66 -2 -18 0
56170 -67 2 0
56170 -67 19 0
56170 67 -2 -19 0
56170 -68 2 0
56170 -68 20 0
56170 68 -2 -20 0
56170 -69 2 0
56170 -69 21 0
56170 69 -2 -21 0
56170 -70 2 0
56170 -70 22 0
56170 70 -2 -22 0
56170 -71 2 0
56170 -71 23 0
56170 71 -2 -23 0
56170 -72 2 0
56170 -72 24 0
56170 72 -2 -24 0
56170 -73 2 0
56170 -73 25 0
56170 73 -2 -25 0
56170 -74 3 0
56170 -74 4 0
56170 74 -3 -4 0
56170 -75 3 0
56170 -75 5 0
56170 75 -3 -5 0
56170 -76 3 0
56170 -76 6 0
56170 76 -3 -6 0
56170 -77 3 0
56170 -77 7 0
56170 77 -3 -7 0
56170 -78 3 0
56170 -78 8 0
56170 78 -3 -8 0
56170 -79 3 0
56170 -79 9 0
56170 79 -3 -9 0
56170 -80 3 0
56170 -80 10 0
56170 80 -3 -10 0
56170 -81 3 0
56170 -81 11 0
56170 81 -3 -11 0
56170 -82 3 0
56170 -82 12 0
56170 82 -3 -12 0
56170 -83 3 0
56170 -83 13 0
56170 83 -3 -13 0
56170 -84 3 0
56170 -84 14 0
56170 84 -3 -14 0
56170 -85 3 0
56170 -85 15 0
56170 85 -3 -15 0
56170 -86 3 0
56170 -86 16 0
56170 86 -3 -16 0
56170 -87 3 0
56170 -87 17 0
56170 87 -3 -17 0
56170 -88 3 0
56170 -88 18 0
56170 88 -3 -18 0
56170 -89 3 0
56170 -89 19 0
56170 89 -3 -19 0
56170 -90 3 0
56170 -90 20 0
56170 90 -3 -20 0
56170 -91 3 0
56170 -91 21 0
56170 91 -3 -21 0
56170 -92 3 0
56170 -92 22 0
56170 92 -3 -22 0
56170 -93 3 0
56170 -93 23 0
56170 93 -3 -23 0
56170 -94 3 0
56170 -94 24 0
56170 94 -3 -24 0
56170 -95 3 0
56170 -95 25 0
56170 95 -3 -25 0
56170 -96 4 0
56170 -96 5 0
56170 96 -4 -5 0
56170 -97 4 0
56170 -97 6 0
56170 97 -4 -6 0
56170 -98 4 0
56170 -98 7 0
56170 98 -4 -7 0
56170 -99 4 0
56170 -99 8 0
56170 99 -4 -8 0
56170 -100 4 0
56170 -100 9 0
56170 100 -4 -9 0
56170 -101 4 0
56170 -101 10 0
56170 101 -4 -10 0
56170 -102 4 0
56170 -102 11 0
56170 102 -4 -11 0
56170 -103 4 0
56170 -103 12 0
56170 103 -4 -12 0
56170 -104 4 0
56170 -104 13 0
56170 104 -4 -13 0
56170 -105 4 0
56170 -105 14 0
56170 105 -4 -14 0
56170 -106 4 0
56170 -106 15 0
56170 106 -4 -15 0
56170 -107 4 0
56170 -107 16 0
56170 107 -4 -16 0
56170 -108 4 0
56170 -108 17 0
56170 108 -4 -17 0
56170 -109 4 0
56170 -109 18 0
56170 109 -4 -18 0
56170 -110 4 0
56170 -110 19 0
56170 110 -4 -19 0
56170 -111 4 0
56170 -111 20 0
56170 111 -4 -20 0
56170 -112 4 0
56170 -112 21 0
56170 112 -4 -21 0
56170 -113 4 0
56170 -113 22 0
56170 113 -4 -22 0
56170 -114 4 0
56170 -114 23 0
56170 114 -4 -23 0
56170 -115 4 0
56170 -115 24 0
56170 115 -4 -24 0
56170 -116 4 0
56170 -116 25 0
56170 116 -4 -25 0
56170 -117 5 0
56170 -117 6 0
56170 117 -5 -6 0
56170 -118 5 0
56170 -118 7 0
56170 118 -5 -7 0
56170 -119 5 0
56170 -119 8 0
56170 119 -5 -8 0
56170 -120 5 0
56170 -120 9 0
56170 120 -5 -9 0
56170 -121 5 0
56170 -121 10 0
56170 121 -5 -10 0
56170 -122 5 0
56170 -122 11 0
56170 122 -5 -11 0
56170 -123 5 0
56170 -123 12 0
56170 123 -5 -12 0
56170 -124 5 0
56170 -124 13 0
56170 124 -5 -13 0
56170 -125 5 0
56170 -125 14 0
56170 125 -5 -14 0
56170 -126 5 0
56170 -126 15 0
56170 126 -5 -15 0
56170 -127 5 0
56170 -127 16 0
56170 127 -5 -16 0
56170 -128 5 0
56170 -128 17 0
56170 128 -5 -17 0
56170 -129 5 0
56170 -129 18 0
56170 129 -5 -18 0
56170 -130 5 0
56170 -130 19 0
56170 130 -5 -19 0
56170 -131 5 0
56170 -131 20 0
56170 131 -5 -20 0
56170 -132 5 0
56170 -132 21 0
56170 132 -5 -21 0
56170 -133 5 0
56170 -133 22 0
56170 133 -5 -22 0
56170 -134 5 0
56170 -134 23 0
56170 134 -5 -23 0
56170 -135 5 0
56170 -135 24 0
56170 135 -5 -24 0
56170 -136 5 0
56170 -136 25 0
56170 136 -5 -25 0
56170 -137 6 0
56170 -137 7 0
56170 137 -6 -7 0
56170 -138 6 0
56170 -138 8 0
56170 138 -6 -8 0
56170 -139 6 0
56170 -139 9 0
56170 139 -6 -9 0
56170 -140 6 0
56170 -140 10 0
56170 140 -6 -10 0
56170 -141 6 0
56170 -141 11 0
56170 141 -6 -11 0
56170 -142 6 0
56170 -142 12 0
56170 142 -6 -12 0
56170 -143 6 0
56170 -143 13 0
56170 143 -6 -13 0
56170 -144 6 0
56170 -144 14 0
56170 144 -6 -14 0
56170 -145 6 0
56170 -145 15 0
56170 145 -6 -15 0
56170 -146 6 0
56170 -146 16 0
56170 146 -6 -16 0
56170 -147 6 0
56170 -147 17 0
56170 147 -6 -17 0
56170 -148 6 0
56170 -148 18 0
56170 148 -6 -18 0
56170 -149 6 0
56170 -149 19 0
56170 149 -6 -19 0
56170 -150 6 0
56170 -150 20 0
56170 150 -6 -20 0
56170 -151 6 0
56170 -151 21 0
56170 151 -6 -21 0
56170 -152 6 0
56170 -152 22 0
56170 152 -6 -22 0
56170 -153 6 0
56170 -153 23 0
56170 153 -6 -23 0
56170 -154 6 0
56170 -154 24 0
56170 154 -6 -24 0
56170 -155 6 0
56170 -155 25 0
56170 155 -6 -25 0
56170 -156 7 0
56170 -156 8 0
56170 156 -7 -8 0
56170 -157 7 0
56170 -157 9 0
56170 157 -7 -9 0
56170 -158 7 0
56170 -158 10 0
56170 158 -7 -10 0
56170 -159 7 0
56170 -159 11 0
56170 159 -7 -11 0
56170 -160 7 0
56170 -160 12 0
56170 160 -7 -12 0
56170 -161 7 0
56170 -161 13 0
56170 161 -7 -13 0
56170 -162 7 0
56170 -162 14 0
56170 162 -7 -14 0
56170 -163 7 0
56170 -163 15 0
56170 163 -7 -15 0
56170 -164 7 0
56170 -164 16 0
56170 164 -7 -16 0
56170 -165 7 0
56170 -165 17 0
56170 165 -7 -17 0
56170 -166 7 0
56170 -166 18 0
56170 166 -7 -18 0
56170 -167 7 0
56170 -167 19 0
56170 167 -7 -19 0
56170 -168 7 0
56170 -168 20 0
56170 168 -7 -20 0
56170 -169 7 0
56170 -169 21 0
56170 169 -7 -21 0
56170 -170 7 0
56170 -170 22 0
56170 170 -7 -22 0
56170 -171 7 0
56170 -171 23 0
56170 171 -7 -23 0
56170 -172 7 0
56170 -172 24 0
56170 172 -7 -24 0
56170 -173 7 0
56170 -173 25 0
56170 173 -7 -25 0
56170 -174 8 0
56170 -174 9 0
56170 174 -8 -9 0
56170 -175 8 0
56170 -175 10 0
56170 175 -8 -10 0
56170 -176 8 0
56170 -176 11 0
56170 176 -8 -11 0
56170 -177 8 0
56170 -177 12 0
56170 177 -8 -12 0
56170 -178 8 0
56170 -178 13 0
56170 178 -8 -13 0
56170 -179 8 0
56170 -179 14 0
56170 179 -8 -14 0
56170 -180 8 0
56170 -180 15 0
56170 180 -8 -15 0
56170 -181 8 0
56170 -181 16 0
56170 181 -8 -16 0
56170 -182 8 0
56170 -182 17 0
56170 182 -8 -17 0
56170 -183 8 0
56170 -183 18 0
56170 183 -8 -18 0
56170 -184 8 0
56170 -184 19 0
56170 184 -8 -19 0
56170 -185 8 0
56170 -185 20 0
56170 185 -8 -20 0
56170 -186 8 0
56170 -186 21 0
56170 186 -8 -21 0
56170 -187 8 0
56170 -187 22 0
56170 187 -8 -22 0
56170 -188 8 0
56170 -188 23 0
56170 188 -8 -23 0
56170 -189 8 0
56170 -189 24 0
56170 189 -8 -24 0
56170 -190 8 0
56170 -190 25 0
56170 190 -8 -25 0
56170 -191 9 0
56170 -191 10 0
56170 191 -9 -10 0
56170 -192 9 0
56170 -192 11 0
56170 192 -9 -11 0
56170 -193 9 0
56170 -193 12 0
56170 193 -9 -12 0
56170 -194 9 0
56170 -194 13 0
56170 194 -9 -13 0
56170 -195 9 0
56170 -195 14 0
56170 195 -9 -14 0
56170 -196 9 0
56170 -196 15 0
56170 196 -9 -15 0
56170 -197 9 0
56170 -197 16 0
56170 197 -9 -16 0
56170 -198 9 0
56170 -198 17 0
56170 198 -9 -17 0
56170 -199 9 0
56170 -199 18 0
56170 199 -9 -18 0
56170 -200 9 0
56170 -200 19 0
56170 200 -9 -19 0
56170 -201 9 0
56170 -201 20 0
56170 201 -9 -20 0
56170 -202 9 0
56170 -202 21 0
56170 202 -9 -21 0
56170 -203 9 0
56170 -203 22 0
56170 203 -9 -22 0
56170 -204 9 0
56170 -204 23 0
56170 204 -9 -23 0
56170 -205 9 0
56170 -205 24 0
56170 205 -9 -24 0
56170 -206 9 0
56170 -206 25 0
56170 206 -9 -25 0
56170 -207 10 0
56170 -207 11 0
56170 207 -10 -11 0
56170 -208 10 0
56170 -208 12 0
56170 208 -10 -12 0
56170 -209 10 0
56170 -209 13 0
56170 209 -10 -13 0
56170 -210 10 0
56170 -210 14 0
56170 210 -10 -14 0
56170 -211 10 0
56170 -211 15 0
56170 211 -10 -15 0
56170 -212 10 0
56170 -212 16 0
56170 212 -10 -16 0
56170 -213 10 0
56170 -213 17 0
56170 213 -10 -17 0
56170 -214 10 0
56170 -214 18 0
56170 214 -10 -18 0
56170 -215 10 0
56170 -215 19 0
56170 215 -10 -19 0
56170 -216 10 0
56170 -216 20 0
56170 216 -10 -20 0
56170 -217 10 0
56170 -217 21 0
56170 217 -10 -21 0
56170 -218 10 0
56170 -218 22 0
56170 218 -10 -22 0
56170 -219 10 0
56170 -219 23 0
56170 219 -10 -23 0
56170 -220 10 0
56170 -220 24 0
56170 220 -10 -24 0
56170 -221 10 0
56170 -221 25 0
56170 221 -10 -25 0
56170 -222 11 0
56170 -222 12 0
56170 222 -11 -12 0
56170 -223 11 0
56170 -223 13 0
56170 223 -11 -13 0
56170 -224 11 0
56170 -224 14 0
56170 224 -11 -14 0
56170 -225 11 0
56170 -225 15 0
56170 225 -11 -15 0
56170 -226 11 0
56170 -226 16 0
56170 226 -11 -16 0
56170 -227 11 0
56170 -227 17 0
56170 227 -11 -17 0
56170 -228 11 0
56170 -228 18 0
56170 228 -11 -18 0
56170 -229 11 0
56170 -229 19 0
56170 229 -11 -19 0
56170 -230 11 0
56170 -230 20 0
56170 230 -11 -20 0
56170 -231 11 0
56170 -231 21 0
56170 231 -11 -21 0
56170 -232 11 0
56170 -232 22 0
56170 232 -11 -22 0
56170 -233 11 0
56170 -233 23 0
56170 233 -11 -23 0
56170 -234 11 0
56170 -234 24 0
56170 234 -11 -24 0
56170 -235 11 0
56170 -235 25 0
56170 235 -11 -25 0
56170 -236 12 0
56170 -236 13 0
56170 236 -12 -13 0
56170 -237 12 0
56170 -237 14 0
56170 237 -12 -14 0
56170 -238 12 0
56170 -238 15 0
56170 238 -12 -15 0
56170 -239 12 0
56170 -239 16 0
56170 239 -12 -16 0
56170 -240 12 0
56170 -240 17 0
56170 240 -12 -17 0
56170 -241 12 0
56170 -241 18 0
56170 241 -12 -18 0
56170 -242 12 0
56170 -242 19 0
56170 242 -12 -19 0
56170 -243 12 0
56170 -243 20 0
56170 243 -12 -20 0
56170 -244 12 0
56170 -244 21 0
56170 244 -12 -21 0
56170 -245 12 0
56170 -245 22 0
56170 245 -12 -22 0
56170 -246 12 0
56170 -246 23 0
56170 246 -12 -23 0
56170 -247 12 0
56170 -247 24 0
56170 247 -12 -24 0
56170 -248 12 0
56170 -248 25 0
56170 248 -12 -25 0
56170 -249 13 0
56170 -249 14 0
56170 249 -13 -14 0
56170 -250 13 0
56170 -250 15 0
56170 250 -13 -15 0
56170 -251 13 0
56170 -251 16 0
56170 251 -13 -16 0
56170 -252 13 0
56170 -252 17 0
56170 252 -13 -17 0
56170 -253 13 0
56170 -253 18 0
56170 253 -13 -18 0
56170 -254 13 0
56170 -254 19 0
56170 254 -13 -19 0
56170 -255 13 0
56170 -255 20 0
56170 255 -13 -20 0
56170 -256 13 0
56170 -256 21 0
56170 256 -13 -21 0
56170 -257 13 0
56170 -257 22 0
56170 257 -13 -22 0
56170 -258 13 0
56170 -258 23 0
56170 258 -13 -23 0
56170 -259 13 0
56170 -259 24 0
56170 259 -13 -24 0
56170 -260 13 0
56170 -260 25 0
56170 260 -13 -25 0
56170 -261 14 0
56170 -261 15 0
56170 261 -14 -15 0
56170 -262 14 0
56170 -262 16 0
56170 262 -14 -16 0
56170 -263 14 0
56170 -263 17 0
56170 263 -14 -17 0
56170 -264 14 0
56170 -264 18 0
56170 264 -14 -18 0
56170 -265 14 0
56170 -265 19 0
56170 265 -14 -19 0
56170 -266 14 0
56170 -266 20 0
56170 266 -14 -20 0
56170 -267 14 0
56170 -267 21 0
56170 267 -14 -21 0
56170 -268 14 0
56170 -268 22 0
56170 268 -14 -22 0
56170 -269 14 0
56170 -269 23 0
56170 269 -14 -23 0
56170 -270 14 0
56170 -270 24 0
56170 270 -14 -24 0
56170 -271 14 0
56170 -271 25 0
56170 271 -14 -25 0
56170 -272 15 0
56170 -272 16 0
56170 272 -15 -16 0
56170 -273 15 0
56170 -273 17 0
56170 273 -15 -17 0
56170 -274 15 0
56170 -274 18 0
56170 274 -15 -18 0
56170 -275 15 0
56170 -275 19 0
56170 275 -15 -19 0
56170 -276 15 0
56170 -276 20 0
56170 276 -15 -20 0
56170 -277 15 0
56170 -277 21 0
56170 277 -15 -21 0
56170 -278 15 0
56170 -278 22 0
56170 278 -15 -22 0
56170 -279 15 0
56170 -279 23 0
56170 279 -15 -23 0
56170 -280 15 0
56170 -280 24 0
56170 280 -15 -24 0
56170 -281 15 0
56170 -281 25 0
56170 281 -15 -25 0
56170 -282 16 0
56170 -282 17 0
56170 282 -16 -17 0
56170 -283 16 0
56170 -283 18 0
56170 283 -16 -18 0
56170 -284 16 0
56170 -284 19 0
56170 284 -16 -19 0
56170 -285 16 0
56170 -285 20 0
56170 285 -16 -20 0
56170 -286 16 0
56170 -286 21 0
56170 286 -16 -21 0
56170 -287 16 0
56170 -287 22 0
56170 287 -16 -22 0
56170 -288 16 0
56170 -288 23 0
56170 288 -16 -23 0
56170 -289 16 0
56170 -289 24 0
56170 289 -16 -24 0
56170 -290 16 0
56170 -290 25 0
56170 290 -16 -25 0
56170 -291 17 0
56170 -291 18 0
56170 291 -17 -18 0
56170 -292 17 0
56170 -292 19 0
56170 292 -17 -19 0
56170 -293 17 0
56170 -293 20 0
56170 293 -17 -20 0
56170 -294 17 0
56170 -294 21 0
56170 294 -17 -21 0
56170 -295 17 0
56170 -295 22 0
56170 295 -17 -22 0
56170 -296 17 0
56170 -296 23 0
56170 296 -17 -23 0
56170 -297 17 0
56170 -297 24 0
56170 297 -17 -24 0
56170 -298 17 0
56170 -298 25 0
56170 298 -17 -25 0
56170 -299 18 0
56170 -299 19 0
56170 299 -18 -19 0
56170 -300 18 0
56170 -300 20 0
56170 300 -18 -20 0
56170 -301 18 0
56170 -301 21 0
56170 301 -18 -21 0
56170 -302 18 0
56170 -302 22 0
56170 302 -18 -22 0
56170 -303 18 0
56170 -303 23 0
56170 303 -18 -23 0
56170 -304 18 0
56170 -304 24 0
56170 304 -18 -24 0
56170 -305 18 0
56170 -305 25 0
56170 305 -18 -25 0
56170 -306 19 0
56170 -306 20 0
56170 306 -19 -20 0
56170 -307 19 0
56170 -307 21 0
56170 307 -19 -21 0
56170 -308 19 0
56170 -308 22 0
56170 308 -19 -22 0
56170 -309 19 0
56170 -309 23 0
56170 309 -19 -23 0
56170 -310 19 0
56170 -310 24 0
56170 310 -19 -24 0
56170 -311 19 0
56170 -311 25 0
56170 311 -19 -25 0
56170 -312 20 0
56170 -312 21 0
56170 312 -20 -21 0
56170 -313 20 0
56170 -313 22 0
56170 313 -20 -22 0
56170 -314 20 0
56170 -314 23 0
56170 314 -20 -23 0
56170 -315 20 0
56170 -315 24 0
56170 315 -20 -24 0
56170 -316 20 0
56170 -316 25 0
56170 316 -20 -25 0
56170 -317 21 0
56170 -317 22 0
56170 317 -21 -22 0
56170 -318 21 0
56170 -318 23 0
56170 318 -21 -23 0
56170 -319 21 0
56170 -319 24 0
56170 319 -21 -24 0
56170 -320 21 0
56170 -320 25 0
56170 320 -21 -25 0
56170 -321 22 0
56170 -321 23 0
56170 321 -22 -23 0
56170 -322 22 0
56170 -322 24 0
56170 322 -22 -24 0
56170 -323 22 0
56170 -323 25 0
56170 323 -22 -25 0
56170 -324 23 0
56170 -324 24 0
56170 324 -23 -24 0
56170 -325 23 0
56170 -325 25 0
56170 325 -23 -25 0
56170 -326 24 0
56170 -326 25 0
56170 326 -24 -25 0
30715 1 0
56160 -1 0
51616 27 0
56160 -27 0
45532 28 0
56160 -28 0
52490 29 0
56160 -29 0
63038 30 0
56160 -30 0
55490 31 0
56160 -31 0
47216 32 0
56160 -32 0
53878 33 0
56160 -33 0
65704 34 0
56160 -34 0
69442 35 0
56160 -35 0
45800 36 0
56160 -36 0
47978 37 0
56160 -37 0
62810 38 0
56160 -38 0
47628 39 0
56160 -39 0
55744 40 0
56160 -40 0
57596 41 0
56160 -41 0
65086 42 0
56160 -42 0
59736 43 0
56160 -43 0
53726 44 0
56160 -44 0
56040 45 0
56160 -45 0
59580 46 0
56160 -46 0
60432 47 0
56160 -47 0
60786 48 0
56160 -48 0
53286 49 0
56160 -49 0
54186 50 0
56160 -50 0
18498 2 0
56160 -2 0
48080 51 0
56160 -51 0
50512 52 0
56160 -52 0
50680 53 0
56160 -53 0
62710 54 0
56160 -54 0
62848 55 0
56160 -55 0
66594 56 0
56160 -56 0
54458 57 0
56160 -57 0
54158 58 0
56160 -58 0
56396 59 0
56160 -59 0
49406 60 0
56160 -60 0
52050 61 0
56160 -61 0
50914 62 0
56160 -62 0
57124 63 0
56160 -63 0
63890 64 0
56160 -64 0
59892 65 0
56160 -65 0
55820 66 0
56160 -66 0
63002 67 0
56160 -67 0
59158 68 0
56160 -68 0
54828 69 0
56160 -69 0
57452 70 0
56160 -70 0
55628 71 0
56160 -71 0
52260 72 0
56160 -72 0
56348 73 0
56160 -73 0
36645 3 0
56160 -3 0
58252 74 0
56160 -74 0
63342 75 0
56160 -75 0
55598 76 0
56160 -76 0
58464 77 0
56160 -77 0
56532 78 0
56160 -78 0
50996 79 0
56160 -79 0
56956 80 0
56160 -80 0
46056 81 0
56160 -81 0
51694 82 0
56160 -82 0
57618 83 0
56160 -83 0
61260 84 0
56160 -84 0
58772 85 0
56160 -85 0
50136 86 0
56160 -86 0
55544 87 0
56160 -87 0
50660 88 0
56160 -88 0
61354 89 0
56160 -89 0
62102 90 0
56160 -90 0
59422 91 0
56160 -91 0
64248 92 0
56160 -92 0
54226 93 0
56160 -93 0
54492 94 0
56160 -94 0
52964 95 0
56160 -95 0
34181 4 0
56160 -4 0
59158 96 0
56160 -96 0
59618 97 0
56160 -97 0
49850 98 0
56160 -98 0
57708 99 0
56160 -99 0
57872 100 0
56160 -100 0
58762 101 0
56160 -101 0
47716 102 0
56160 -102 0
46826 103 0
56160 -103 0
54850 104 0
56160 -104 0
57310 105 0
56160 -105 0
61476 106 0
56160 -106 0
58638 107 0
56160 -107 0
67534 108 0
56160 -108 0
55854 109 0
56160 -109 0
54586 110 0
56160 -110 0
60740 111 0
56160 -111 0
60492 112 0
56160 -112 0
62428 113 0
56160 -113 0
60592 114 0
56160 -114 0
54330 115 0
56160 -115 0
53622 116 0
56160 -116 0
18527 5 0
56160 -5 0
64016 117 0
56160 -117 0
65316 118 0
56160 -118 0
66464 119 0
56160 -119 0
60264 120 0
56160 -120 0
51134 121 0
56160 -121 0
65528 122 0
56160 -122 0
60194 123 0
56160 -123 0
50808 124 0
56160 -124 0
50302 125 0
56160 -125 0
68754 126 0
56160 -126 0
65388 127 0
56160 -127 0
52568 128 0
56160 -128 0
61276 129 0
56160 -129 0
65124 130 0
56160 -130 0
58940 131 0
56160 -131 0
53166 132 0
56160 -132 0
54052 133 0
56160 -133 0
57770 134 0
56160 -134 0
50964 135 0
56160 -135 0
57100 136 0
56160 -136 0
66426 6 0
56160 -6 0
55448 137 0
56160 -137 0
59180 138 0
56160 -138 0
67324 139 0
56160 -139 0
61690 140 0
56160 -140 0
54134 141 0
56160 -141 0
60552 142 0
56160 -142 0
53902 143 0
56160 -143 0
60472 144 0
56160 -144 0
53636 145 0
56160 -145 0
48858 146 0
56160 -146 0
55872 147 0
56160 -147 0
60036 148 0
56160 -148 0
51936 149 0
56160 -149 0
52118 150 0
56160 -150 0
57120 151 0
56160 -151 0
54628 152 0
56160 -152 0
57960 153 0
56160 -153 0
59580 154 0
56160 -154 0
54468 155 0
56160 -155 0
40936 7 0
56160 -7 0
55632 156 0
56160 -156 0
60252 157 0
56160 -157 0
74990 158 0
56160 -158 0
42124 159 0
56160 -159 0
54090 160 0
56160 -160 0
65022 161 0
56160 -161 0
62250 162 0
56160 -162 0
47454 163 0
56160 -163 0
59810 164 0
56160 -164 0
59506 165 0
56160 -165 0
61328 166 0
56160 -166 0
46484 167 0
56160 -167 0
52874 168 0
56160 -168 0
57692 169 0
56160 -169 0
57332 170 0
56160 -170 0
59314 171 0
56160 -171 0
56166 172 0
56160 -172 0
52682 173 0
56160 -173 0
68513 8 0
56160 -8 0
58538 174 0
56160 -174 0
64124 175 0
56160 -175 0
57958 176 0
56160 -176 0
63672 177 0
56160 -177 0
46152 178 0
56160 -178 0
61590 179 0
56160 -179 0
55364 180 0
56160 -180 0
47358 181 0
56160 -181 0
60212 182 0
56160 -182 0
52098 183 0
56160 -183 0
51652 184 0
56160 -184 0
55376 185 0
56160 -185 0
57622 186 0
56160 -186 0
55848 187 0
56160 -187 0
55280 188 0
56160 -188 0
59328 189 0
56160 -189 0
57664 190 0
56160 -190 0
25689 9 0
56160 -9 0
47084 191 0
56160 -191 0
48226 192 0
56160 -192 0
56970 193 0
56160 -193 0
65526 194 0
56160 -194 0
56712 195 0
56160 -195 0
57912 196 0
56160 -196 0
59842 197 0
56160 -197 0
50978 198 0
56160 -198 0
50904 199 0
56160 -199 0
53072 200 0
56160 -200 0
57090 201 0
56160 -201 0
56060 202 0
56160 -202 0
56884 203 0
56160 -203 0
54234 204 0
56160 -204 0
54618 205 0
56160 -205 0
59638 206 0
56160 -206 0
28865 10 0
56160 -10 0
70032 207 0
56160 -207 0
52322 208 0
56160 -208 0
49644 209 0
56160 -209 0
53756 210 0
56160 -210 0
60738 211 0
56160 -211 0
55460 212 0
56160 -212 0
50238 213 0
56160 -213 0
48678 214 0
56160 -214 0
67762 215 0
56160 -215 0
61118 216 0
56160 -216 0
54278 217 0
56160 -217 0
56396 218 0
56160 -218 0
50486 219 0
56160 -219 0
57954 220 0
56160 -220 0
57006 221 0
56160 -221 0
39849 11 0
56160 -11 0
58580 222 0
56160 -222 0
69006 223 0
56160 -223 0
60468 224 0
56160 -224 0
56436 225 0
56160 -225 0
55730 226 0
56160 -226 0
60818 227 0
56160 -227 0
53984 228 0
56160 -228 0
50000 229 0
56160 -229 0
58134 230 0
56160 -230 0
61784 231 0
56160 -231 0
64708 232 0
56160 -232 0
58178 233 0
56160 -233 0
55794 234 0
56160 -234 0
51742 235 0
56160 -235 0
34691 12 0
56160 -12 0
59186 236 0
56160 -236 0
54380 237 0
56160 -237 0
52968 238 0
56160 -238 0
54626 239 0
56160 -239 0
59782 240 0
56160 -240 0
54746 241 0
56160 -241 0
58930 242 0
56160 -242 0
59268 243 0
56160 -243 0
58704 244 0
56160 -244 0
60636 245 0
56160 -245 0
57300 246 0
56160 -246 0
55434 247 0
56160 -247 0
54374 248 0
56160 -248 0
58288 13 0
56160 -13 0
60722 249 0
56160 -249 0
64056 250 0
56160 -250 0
52914 251 0
56160 -251 0
59362 252 0
56160 -252 0
54502 253 0
56160 -253 0
61824 254 0
56160 -254 0
59002 255 0
56160 -255 0
55826 256 0
56160 -256 0
55740 257 0
56160 -257 0
55354 258 0
56160 -258 0
58242 259 0
56160 -259 0
55502 260 0
56160 -260 0
34835 14 0
56160 -14 0
60616 261 0
56160 -261 0
59480 262 0
56160 -262 0
59548 263 0
56160 -263 0
64918 264 0
56160 -264 0
56832 265 0
56160 -265 0
53116 266 0
56160 -266 0
54072 267 0
56160 -267 0
51260 268 0
56160 -268 0
61662 269 0
56160 -269 0
50148 270 0
56160 -270 0
60860 271 0
56160 -271 0
46488 15 0
56160 -15 0
55982 272 0
56160 -272 0
55192 273 0
56160 -273 0
54300 274 0
56160 -274 0
52670 275 0
56160 -275 0
51786 276 0
56160 -276 0
53928 277 0
56160 -277 0
53892 278 0
56160 -278 0
52404 279 0
56160 -279 0
56040 280 0
56160 -280 0
58040 281 0
56160 -281 0
65917 16 0
56160 -16 0
58112 282 0
56160 -282 0
53072 283 0
56160 -283 0
55198 284 0
56160 -284 0
56770 285 0
56160 -285 0
59424 286 0
56160 -286 0
59084 287 0
56160 -287 0
56240 288 0
56160 -288 0
59148 289 0
56160 -289 0
55220 290 0
56160 -290 0
44685 17 0
56160 -17 0
54086 291 0
56160 -291 0
57606 292 0
56160 -292 0
54126 293 0
56160 -293 0
52806 294 0
56160 -294 0
52596 295 0
56160 -295 0
50458 296 0
56160 -296 0
59814 297 0
56160 -297 0
55690 298 0
56160 -298 0
50217 18 0
56160 -18 0
63466 299 0
56160 -299 0
62194 300 0
56160 -300 0
57678 301 0
56160 -301 0
61196 302 0
56160 -302 0
48746 303 0
56160 -303 0
62190 304 0
56160 -304 0
53058 305 0
56160 -305 0
57146 19 0
56160 -19 0
48716 306 0
56160 -306 0
56654 307 0
56160 -307 0
53192 308 0
56160 -308 0
61726 309 0
56160 -309 0
52602 310 0
56160 -310 0
59638 311 0
56160 -311 0
57692 20 0
56160 -20 0
54176 312 0
56160 -312 0
51076 313 0
56160 -313 0
58500 314 0
56160 -314 0
54258 315 0
56160 -315 0
59262 316 0
56160 -316 0
52223 21 0
56160 -21 0
52376 317 0
56160 -317 0
54998 318 0
56160 -318 0
55542 319 0
56160 -319 0
57946 320 0
56160 -320 0
54420 22 0
56160 -22 0
56800 321 0
56160 -321 0
55116 322 0
56160 -322 0
59732 323 0
56160 -323 0
51959 23 0
56160 -23 0
60810 324 0
56160 -324 0
54374 325 0
56160 -325 0
45573 24 0
56160 -24 0
59826 326 0
56160 -326 0
54233 25 0
56160 -25 0
